c Random generated cnf formula, satisfiable: false
p cnf 10 50
9 3 5 0
9 10 -3 0
6 8 7 0
-6 -10 5 0
-7 -6 -2 0
-5 -8 -6 0
5 4 -1 0
10 -8 4 0
9 -8 -2 0
-4 7 -10 0
-10 1 -7 0
1 3 -6 0
-9 -4 -7 0
3 -6 -1 0
7 6 -5 0
10 -4 -5 0
-4 -7 2 0
10 -9 -6 0
4 -9 7 0
6 -2 -7 0
-7 1 -3 0
-2 -5 10 0
-5 7 -10 0
-2 1 -7 0
-9 5 -4 0
-3 4 5 0
-2 -7 -1 0
-5 -8 -4 0
-8 1 10 0
9 -10 -7 0
-3 -10 -4 0
2 -5 -9 0
10 1 -9 0
6 -2 -7 0
8 3 2 0
-4 -5 7 0
-9 4 6 0
-3 -6 5 0
5 -2 -10 0
4 7 1 0
-1 10 -4 0
10 -1 7 0
7 -2 -6 0
-10 -7 -1 0
-8 -1 2 0
-3 2 -1 0
10 3 -1 0
9 -10 -7 0
8 -9 -4 0
2 -7 -9 0
